data/mip_solutions/furman_sahinidis/reduced_transportation/7sp-s1_gurobi.sol
Elapsed time: 0.11604809761
Nodes explored: 0
Upper bound: 10.0
Lower bound: 10.0
y[0,0]=1
y[1,0]=1
y[1,1]=1
y[2,0]=1
y[2,1]=1
y[3,0]=1
y[3,1]=1
y[4,0]=1
y[5,0]=1
y[6,0]=1
q[0,6,0,6]=5831.6
q[1,4,0,4]=312.0
q[1,4,0,6]=1956.0
q[1,5,0,5]=3693.6
q[1,6,0,6]=3952.8
q[1,7,1,7]=648.0
q[2,5,0,5]=3568.2
q[2,6,0,6]=3818.6
q[2,7,1,7]=626.0
q[3,2,0,2]=4656.3
q[3,3,0,3]=3325.0
q[3,3,0,4]=468.8
q[3,3,0,6]=133.2
q[3,4,0,4]=1963.5
q[3,5,0,5]=3197.7
q[3,6,0,6]=3422.1
q[3,7,1,7]=561.0
q[4,3,0,3]=7517.0
q[4,3,0,6]=561.0
q[4,4,0,4]=3570.2
q[4,4,0,6]=468.8
q[4,5,0,5]=5777.5
q[4,5,0,6]=800.3
q[4,6,0,6]=5885.4
q[5,1,0,1]=10973.1
q[5,1,0,2]=1787.3
q[5,2,0,2]=74.3
q[5,2,0,3]=7573.8
q[5,2,0,4]=6860.3
q[5,3,0,3]=561.0
q[5,3,0,4]=762.2
q[5,3,0,5]=10912.8
q[5,4,0,4]=6118.0
q[5,5,0,5]=5511.2
q[5,5,0,6]=4452.4
q[5,5,1,6]=4.54747350886e-13
q[5,6,0,6]=3670.8
q[6,0,0,1]=19968.9
q[6,0,0,2]=41041.1
q[6,0,0,3]=21133.2
